
Gurobi 11.0.1 (win64) logging started Thu May 16 19:31:45 2024

Set parameter LogFile to value "output/solver_log39.txt"
Gurobi Optimizer version 11.0.1 build v11.0.1rc0 (win64 - Windows 11.0 (22631.2))

CPU model: 11th Gen Intel(R) Core(TM) i7-1165G7 @ 2.80GHz, instruction set [SSE2|AVX|AVX2|AVX512]
Thread count: 4 physical cores, 8 logical processors, using up to 8 threads

Optimize a model with 5079 rows, 1319 columns and 93802 nonzeros
Model fingerprint: 0xc95d7635
Variable types: 568 continuous, 751 integer (751 binary)
Coefficient statistics:
  Matrix range     [4e-01, 1e+05]
  Objective range  [1e+00, 1e+02]
  Bounds range     [1e+00, 1e+00]
  RHS range        [1e-02, 1e+05]

User MIP start produced solution with objective 97323.3 (0.01s)
User MIP start produced solution with objective 97323.3 (0.01s)
Loaded user MIP start with objective 97323.3

Presolve removed 693 rows and 376 columns
Presolve time: 0.12s
Presolved: 4386 rows, 943 columns, 83317 nonzeros
Variable types: 526 continuous, 417 integer (414 binary)

Root relaxation: objective 9.773776e+04, 1084 iterations, 0.07 seconds (0.11 work units)

    Nodes    |    Current Node    |     Objective Bounds      |     Work
 Expl Unexpl |  Obj  Depth IntInf | Incumbent    BestBd   Gap | It/Node Time

     0     0 97737.7599    0    9 97323.2926 97737.7599  0.43%     -    0s
     0     0 97737.7599    0    9 97323.2926 97737.7599  0.43%     -    0s
     0     0 97629.0535    0   13 97323.2926 97629.0535  0.31%     -    0s
     0     0 97628.0351    0    5 97323.2926 97628.0351  0.31%     -    0s
     0     0 97628.0351    0    5 97323.2926 97628.0351  0.31%     -    0s
     0     0 97628.0351    0    6 97323.2926 97628.0351  0.31%     -    0s
     0     0 97619.4625    0    4 97323.2926 97619.4625  0.30%     -    1s
     0     0 97616.9558    0    4 97323.2926 97616.9558  0.30%     -    1s
     0     2 97616.9558    0    4 97323.2926 97616.9558  0.30%     -    1s
*   32    23               6    97508.914758 97616.9558  0.11%  57.9    1s
 24642    26 97563.5870 6398    4 97508.9148 97569.1754  0.06%   0.1    5s

Cutting planes:
  MIR: 1
  Flow cover: 1

Explored 32098 nodes (8804 simplex iterations) in 8.28 seconds (6.77 work units)
Thread count was 8 (of 8 available processors)

Solution count 3: 97508.9 97508.9 97323.3 

Optimal solution found (tolerance 1.00e-04)
Best objective 9.750891475768e+04, best bound 9.750891475768e+04, gap 0.0000%
